75 5000 9
584 6984
517 27865
896 18816
467 27302
199 16115
650 995
94 10512
612 12975
648 15635
561 4405
23 31377
71 20699
695 31825
354 12732
575 19294
148 3673
588 26714
587 20363
547 32533
256 23741
883 30815
335 23639
971 24090
590 22653
849 17811
670 7162
415 13330
136 23415
953 12719
795 32497
764 32360
322 8042
389 7537
83 3294
502 10955
944 28792
863 12056
608 24326
409 26030
527 28587
245 10474
507 10963
764 30918
650 25964
15 20398
143 23636
222 14736
542 9229
419 24883
268 16568
533 1993
60 31297
33 6855
156 16599
738 23540
476 13727
644 20416
225 11177
137 26072
164 13603
579 4087
818 4300
735 15103
776 2988
595 24136
597 11011
262 5432
438 12927
509 30484
130 23217
663 8469
581 19394
598 9919
318 12386
244 23662
